(set-logic ALL)
(set-option :produce-models true)
(define-fun-rec str.toLower ((x String)) String
  (ite (= x "")
      ""
      (let ((Head (str.at x 0)))
        (str.++ 
          (ite (and (<= 65 (str.to_code Head)) 
                     (<= (str.to_code Head) 90))
               (str.from_code (+ (str.to_code Head) 32))
               Head)
          (str.toLower (str.substr x 1 (- (str.len x) 1)))))))
(declare-fun sym1679 () String)
(declare-fun sym2080 () String)
(declare-fun sym1249 () String)
(declare-fun sym1895 () String)
(declare-fun sym1464 () String)
(declare-fun sym1033 () String)
(declare-fun sym205 () String)
(declare-fun sym547 () String)
(declare-fun sym812 () String)
(declare-fun sym161 () String)

(assert (not (= (str.toLower (str.substr sym812  0 1))"r" )))
(assert (not (= "" sym547 )))
(assert (not (= (str.toLower (str.substr sym1679  0 1))"r" )))
(assert (not (= "" sym2080 )))
(assert (= (str.toLower (str.substr sym1033  0 1))"g" ))
(assert (= (str.toLower (str.substr sym812  0 1))"h" ))
(assert (= (str.toLower (str.substr sym1249  0 1))"h" ))
(assert (not (= (str.toLower (str.substr sym1033  0 1))"k" )))
(assert (= (str.toLower (str.substr sym1895  0 1))"h" ))
(assert (= "y" "y" ))
(assert (not (= "" sym161 )))
(assert (not (= (str.toLower (str.substr sym1895  0 1))"l" )))
(assert (not (= (str.toLower (str.substr sym547  0 1))"q" )))
(assert (not (= (str.toLower (str.substr sym1033  0 1))"p" )))
(assert (not (= (str.toLower (str.substr sym1249  0 1))"r" )))
(assert (not (= "" sym1895 )))
(assert (= "" "" ))
(assert (not (= (str.toLower (str.substr sym2080  0 1))"r" )))
(assert (not (= (str.toLower (str.substr sym1895  0 1))"q" )))
(assert (not (= (str.toLower (str.substr sym1895  0 1))"k" )))
(assert (not (= "" sym812 )))
(assert (not (= (str.toLower (str.substr sym1249  0 1))"q" )))
(assert (not (= (str.toLower (str.substr sym1249  0 1))"p" )))
(assert (not (= (str.toLower (str.substr sym2080  0 1))"p" )))
(assert (not (= (str.toLower (str.substr sym1895  0 1))"p" )))
(assert (not (= (str.toLower (str.substr sym1679  0 1))"q" )))
(assert (not (= "y" "n" )))
(assert (not (= (str.toLower (str.substr sym812  0 1))"k" )))
(assert (not (= (str.toLower (str.substr sym1679  0 1))"g" )))
(assert (not (= (str.toLower (str.substr sym1249  0 1))"k" )))
(assert (not (= (str.toLower (str.substr sym2080  0 1))"g" )))
(assert (not (= "" "y" )))
(assert (not (= (str.toLower (str.substr sym547  0 1))"k" )))
(assert (not (= "" sym1033 )))
(assert (not (= "" "y" )))
(assert (not (= (str.toLower (str.substr sym2080  0 1))"k" )))
(assert (not (= "" "q" )))
(assert (not (= "" sym205 )))
(assert (not (= (str.toLower (str.substr sym2080  0 1))"l" )))
(assert (not (= (str.toLower (str.substr sym1249  0 1))"g" )))
(assert (not (= (str.toLower (str.substr sym1679  0 1))"p" )))
(assert (not (= (str.toLower (str.substr sym1895  0 1))"r" )))
(assert (not (= (str.toLower (str.substr sym1464  0 1))"g" )))
(assert (not (= "" sym1249 )))
(assert (not (= (str.toLower (str.substr sym1249  0 1))"l" )))
(assert (= (str.toLower (str.substr sym1464  0 1))"h" ))
(assert (not (= (str.toLower (str.substr sym547  0 1))"p" )))
(assert (not (= "" sym1679 )))
(assert (= (str.toLower (str.substr sym205  0 1))"y" ))
(assert (not (= (str.toLower (str.substr sym812  0 1))"q" )))
(assert (not (= (str.toLower (str.substr sym1679  0 1))"k" )))
(assert (not (= (str.toLower (str.substr sym1464  0 1))"l" )))
(assert (not (= (str.toLower (str.substr sym1895  0 1))"g" )))
(assert (not (= (str.toLower (str.substr sym1464  0 1))"q" )))
(assert (not (= "" sym1464 )))
(assert (= (str.toLower (str.substr sym1679  0 1))"h" ))
(assert (not (= (str.toLower (str.substr sym1464  0 1))"r" )))
(assert (not (= (str.toLower (str.substr sym2080  0 1))"q" )))
(assert (= (str.toLower (str.substr sym2080  0 1))"h" ))
(assert (not (= (str.toLower (str.substr sym1464  0 1))"k" )))
(assert (not (= (str.toLower (str.substr sym812  0 1))"p" )))
(assert (not (= "" (str.toLower (str.substr sym205  0 1)))))
(assert (not (= (str.toLower (str.substr sym1679  0 1))"l" )))
(assert (= (str.toLower (str.substr sym547  0 1))"g" ))
(assert (not (= (str.toLower (str.substr sym1464  0 1))"p" )))
(assert (not (= (str.toLower (str.substr sym812  0 1))"l" )))
(assert (not (= (str.toLower (str.substr sym1033  0 1))"q" )))
(assert (not (= (str.toLower (str.substr sym812  0 1))"g" )))
(check-sat)
(get-model)
(exit)
